benchmark/results/graph__10-1000-0.10-02_6/graph__10-1000-0.10-02_6_QuintonOs_Benders_primal_sub.lp
\ This file has been generated by DOcplex
\ ENCODING=ISO-8859-1
\Problem name: Quinton Bounded Benders_primal_sub

Maximize
 obj: tau
Subject To
 c1: tau <= 0.000817661488
 c2: y_a0_proc_0 - tau = 0
 c3: y_a0_proc_0 <= 1
 c4: tau <= 0.001572327044
 c5: y_a1_proc_0 + y_a1_proc_1 - tau = 0
 c6: y_a1_proc_0 <= 0
 c7: y_a1_proc_1 <= 1
 c8: tau <= 0.001228501229
 c9: y_a2_proc_1 - tau = 0
 c10: y_a2_proc_1 <= 1
 c11: tau <= 0.001293661061
 c12: y_a3_proc_0 + y_a3_proc_1 - tau = 0
 c13: y_a3_proc_0 <= 1
 c14: y_a3_proc_1 <= 0
 c15: tau <= 0.001592356688
 c16: y_a4_proc_1 - tau = 0
 c17: y_a4_proc_1 <= 1
 c18: tau <= 0.000948766603
 c19: y_a5_proc_0 - tau = 0
 c20: y_a5_proc_0 <= 1
 c21: tau <= 0.001980198020
 c22: y_a6_proc_0 + y_a6_proc_1 - tau = 0
 c23: y_a6_proc_0 <= 0
 c24: y_a6_proc_1 <= 1
 c25: tau <= 0.001242236025
 c26: y_a7_proc_0 + y_a7_proc_1 - tau = 0
 c27: y_a7_proc_0 <= 1
 c28: y_a7_proc_1 <= 0
 c29: tau <= 0.001406469761
 c30: y_a8_proc_0 + y_a8_proc_1 - tau = 0
 c31: y_a8_proc_0 <= 0
 c32: y_a8_proc_1 <= 1
 c33: tau <= 0.000838926174
 c34: y_a9_proc_1 - tau = 0
 c35: y_a9_proc_1 <= 1
 c36: u_a0 - u_a1 - 1174 y_a1_proc_0 - 636 y_a1_proc_1 >= 0
 c37: u_a1 - u_a2 - 814 y_a2_proc_1 >= -1
 c38: u_a3 - u_a0 - 1223 y_a0_proc_0 >= 0
 c39: u_a1 - u_a4 - 628 y_a4_proc_1 >= 0
 c40: u_a2 - u_a5 - 1054 y_a5_proc_0 >= 0
 c41: u_a4 - u_a6 - 997 y_a6_proc_0 - 505 y_a6_proc_1 >= 0
 c42: u_a6 - u_a7 - 805 y_a7_proc_0 - 1261 y_a7_proc_1 >= 0
 c43: u_a8 - u_a7 - 805 y_a7_proc_0 - 1261 y_a7_proc_1 >= -1
 c44: u_a9 - u_a8 - 988 y_a8_proc_0 - 711 y_a8_proc_1 >= 0
 c45: - 997 y_a6_proc_0 - 505 y_a6_proc_1 >= -1
 c46: u_a7 - u_a9 - 1192 y_a9_proc_1 >= 0
 c47: u_a2 - u_a3 - 773 y_a3_proc_0 - 1157 y_a3_proc_1 >= 0
 c48: u_a5 - u_a9 - 1192 y_a9_proc_1 >= 0
 c49: u_a5 - u_a8 - 988 y_a8_proc_0 - 711 y_a8_proc_1 >= 0
 c50: u_a6 - u_a8 - 988 y_a8_proc_0 - 711 y_a8_proc_1 >= 0
 c51: u_a4 - u_a9 - 1192 y_a9_proc_1 >= 0
 c52: u_a5 - u_a2 - 814 y_a2_proc_1 >= -1
 c53: u_a4 - u_a3 - 773 y_a3_proc_0 - 1157 y_a3_proc_1 >= -1
 c54: u_a1 - u_a0 - 1223 y_a0_proc_0 >= -1273
 c55: u_a0 - u_a1 - 1174 y_a1_proc_0 >= -1250
 c56: u_a3 - u_a0 - 1223 y_a0_proc_0 >= 0
 c57: u_a0 - u_a3 - 773 y_a3_proc_0 >= -1
 c58: u_a5 - u_a0 - 1223 y_a0_proc_0 >= -1
 c59: u_a0 - u_a5 - 1054 y_a5_proc_0 >= 0
 c60: u_a6 - u_a0 - 1223 y_a0_proc_0 >= -1273
 c61: u_a0 - u_a6 - 997 y_a6_proc_0 >= -1250
 c62: u_a7 - u_a0 - 1223 y_a0_proc_0 >= -11
 c63: u_a0 - u_a7 - 805 y_a7_proc_0 >= 10
 c64: u_a8 - u_a0 - 1223 y_a0_proc_0 >= -1273
 c65: u_a0 - u_a8 - 988 y_a8_proc_0 >= -1250
 c66: u_a2 - u_a1 - 636 y_a1_proc_1 >= 0
 c67: u_a1 - u_a2 - 814 y_a2_proc_1 >= -1
 c68: u_a3 - u_a1 - 636 y_a1_proc_1 >= -1273
 c69: u_a3 - u_a1 - 1174 y_a1_proc_0 >= -1273
 c70: u_a1 - u_a3 - 1157 y_a3_proc_1 >= -1250
 c71: u_a1 - u_a3 - 773 y_a3_proc_0 >= -1250
 c72: u_a4 - u_a1 - 636 y_a1_proc_1 >= -1
 c73: u_a1 - u_a4 - 628 y_a4_proc_1 >= 0
 c74: u_a5 - u_a1 - 1174 y_a1_proc_0 >= -1273
 c75: u_a1 - u_a5 - 1054 y_a5_proc_0 >= -1250
 c76: u_a6 - u_a1 - 636 y_a1_proc_1 >= -9
 c77: u_a6 - u_a1 - 1174 y_a1_proc_0 >= -2531
 c78: u_a1 - u_a6 - 505 y_a6_proc_1 >= 8
 c79: u_a1 - u_a6 - 997 y_a6_proc_0 >= -2514
 c80: u_a7 - u_a1 - 636 y_a1_proc_1 >= -1250
 c81: u_a7 - u_a1 - 1174 y_a1_proc_0 >= -1250
 c82: u_a1 - u_a7 - 1261 y_a7_proc_1 >= -1273
 c83: u_a1 - u_a7 - 805 y_a7_proc_0 >= -1273
 c84: u_a8 - u_a1 - 636 y_a1_proc_1 >= -11
 c85: u_a8 - u_a1 - 1174 y_a1_proc_0 >= -2533
 c86: u_a1 - u_a8 - 711 y_a8_proc_1 >= 10
 c87: u_a1 - u_a8 - 988 y_a8_proc_0 >= -2512
 c88: u_a9 - u_a1 - 636 y_a1_proc_1 >= -11
 c89: u_a1 - u_a9 - 1192 y_a9_proc_1 >= 10
 c90: u_a3 - u_a2 - 814 y_a2_proc_1 >= -1273
 c91: u_a2 - u_a3 - 1157 y_a3_proc_1 >= -1250
 c92: u_a4 - u_a2 - 814 y_a2_proc_1 >= -1
 c93: u_a2 - u_a4 - 628 y_a4_proc_1 >= 0
 c94: u_a6 - u_a2 - 814 y_a2_proc_1 >= -10
 c95: u_a2 - u_a6 - 505 y_a6_proc_1 >= 9
 c96: u_a7 - u_a2 - 814 y_a2_proc_1 >= -1273
 c97: u_a2 - u_a7 - 1261 y_a7_proc_1 >= -1250
 c98: u_a8 - u_a2 - 814 y_a2_proc_1 >= -12
 c99: u_a2 - u_a8 - 711 y_a8_proc_1 >= 11
 c100: u_a9 - u_a2 - 814 y_a2_proc_1 >= -12
 c101: u_a2 - u_a9 - 1192 y_a9_proc_1 >= 11
 c102: u_a4 - u_a3 - 1157 y_a3_proc_1 >= -1273
 c103: u_a3 - u_a4 - 628 y_a4_proc_1 >= -1250
 c104: u_a5 - u_a3 - 773 y_a3_proc_0 >= -1
 c105: u_a3 - u_a5 - 1054 y_a5_proc_0 >= 0
 c106: u_a6 - u_a3 - 1157 y_a3_proc_1 >= -1250
 c107: u_a6 - u_a3 - 773 y_a3_proc_0 >= -1250
 c108: u_a3 - u_a6 - 505 y_a6_proc_1 >= -1273
 c109: u_a3 - u_a6 - 997 y_a6_proc_0 >= -1273
 c110: u_a7 - u_a3 - 1157 y_a3_proc_1 >= -2533
 c111: u_a7 - u_a3 - 773 y_a3_proc_0 >= -11
 c112: u_a3 - u_a7 - 1261 y_a7_proc_1 >= -2512
 c113: u_a3 - u_a7 - 805 y_a7_proc_0 >= 10
 c114: u_a8 - u_a3 - 1157 y_a3_proc_1 >= -1250
 c115: u_a8 - u_a3 - 773 y_a3_proc_0 >= -1250
 c116: u_a3 - u_a8 - 711 y_a8_proc_1 >= -1273
 c117: u_a3 - u_a8 - 988 y_a8_proc_0 >= -1273
 c118: u_a9 - u_a3 - 1157 y_a3_proc_1 >= -1273
 c119: u_a3 - u_a9 - 1192 y_a9_proc_1 >= -1250
 c120: u_a6 - u_a4 - 628 y_a4_proc_1 >= -9
 c121: u_a4 - u_a6 - 505 y_a6_proc_1 >= 8
 c122: u_a7 - u_a4 - 628 y_a4_proc_1 >= -1250
 c123: u_a4 - u_a7 - 1261 y_a7_proc_1 >= -1273
 c124: u_a8 - u_a4 - 628 y_a4_proc_1 >= -11
 c125: u_a4 - u_a8 - 711 y_a8_proc_1 >= 10
 c126: u_a9 - u_a4 - 628 y_a4_proc_1 >= -11
 c127: u_a4 - u_a9 - 1192 y_a9_proc_1 >= 10
 c128: u_a6 - u_a5 - 1054 y_a5_proc_0 >= -1273
 c129: u_a5 - u_a6 - 997 y_a6_proc_0 >= -1250
 c130: u_a7 - u_a5 - 1054 y_a5_proc_0 >= -11
 c131: u_a5 - u_a7 - 805 y_a7_proc_0 >= 10
 c132: u_a8 - u_a5 - 1054 y_a5_proc_0 >= -1273
 c133: u_a5 - u_a8 - 988 y_a8_proc_0 >= -1250
 c134: u_a7 - u_a6 - 505 y_a6_proc_1 >= -1273
 c135: u_a7 - u_a6 - 997 y_a6_proc_0 >= -1273
 c136: u_a6 - u_a7 - 1261 y_a7_proc_1 >= -1250
 c137: u_a6 - u_a7 - 805 y_a7_proc_0 >= -1250
 c138: u_a8 - u_a6 - 505 y_a6_proc_1 >= -2
 c139: u_a8 - u_a6 - 997 y_a6_proc_0 >= -2524
 c140: u_a6 - u_a8 - 711 y_a8_proc_1 >= 1
 c141: u_a6 - u_a8 - 988 y_a8_proc_0 >= -2521
 c142: u_a9 - u_a6 - 505 y_a6_proc_1 >= -2
 c143: u_a6 - u_a9 - 1192 y_a9_proc_1 >= 1
 c144: u_a8 - u_a7 - 1261 y_a7_proc_1 >= -1273
 c145: u_a8 - u_a7 - 805 y_a7_proc_0 >= -1273
 c146: u_a7 - u_a8 - 711 y_a8_proc_1 >= -1250
 c147: u_a7 - u_a8 - 988 y_a8_proc_0 >= -1250
 c148: u_a9 - u_a7 - 1261 y_a7_proc_1 >= -1273
 c149: u_a7 - u_a9 - 1192 y_a9_proc_1 >= -1250
 c150: u_a9 - u_a8 - 711 y_a8_proc_1 >= 0
 c151: u_a8 - u_a9 - 1192 y_a9_proc_1 >= -1

Bounds
End
