benchmark/results/graph__10-1000-0.10-02_6/graph__10-1000-0.10-02_6_QuintonOs_Benders_primal_sub.txt
solution for: Quinton Bounded Benders_primal_sub
objective: 0.000222916
status: OPTIMAL_SOLUTION(2)
u_a0=10.887
u_a1=10.746
u_a2=11.424
u_a3=11.252
u_a4=10.606
u_a5=10.652
u_a6=1.887
u_a7=0.473
u_a9=0.158
tau=0.000
y_a0_proc_0=0.000
y_a1_proc_1=0.000
y_a2_proc_1=0.000
y_a3_proc_0=0.000
y_a4_proc_1=0.000
y_a5_proc_0=0.000
y_a6_proc_1=0.000
y_a7_proc_0=0.000
y_a8_proc_1=0.000
y_a9_proc_1=0.000
